3797
548
1279
2685
1614
1837
444
3193
412
2687
3502
754
693
3719
1676
354
4144
3095
653
3880
1325
3417
3535
2704
1134
1518
2013
2140
1979
2674
842
3845
1238
1282
1793
3004
2614
2339
736
1149
932
914
1060
2571
2512
281
419
1033
3040
1360
1628
3450
4077
754
1852
3691
1313
3368
622
686
674
1743
471
135
2358
3831
1864
3402
4161
3626
1262
2524
2825
1245
2692
923
3084
396
2096
654
830
1128
2599
3447
1211
702
3171
2625
3119
4102
1758
2538
603
785
631
1315
1428
3186
1621
1988
